25
6
22 17 6 9 8 12 2 16 14 3 7 18 20 1 24 15 10 4 19
13 17 8 23 12 20 0 7 6 24
17 11 14 15 18 9 12 23 8 22 19 24 10 1 0 6 4 21 2 5 16 7 20
6 16 15 11 5 23 2 12 8 0 18 22
4 23 13 15 2 6 5 12 20 16 21
21 12 8 11 6 23 24 1 5 3 14 18
